166 164 165 203 204 202 201 200 199 198 208 207 206 205 197 196 195 194 209 210 211 212 213 214 215 216 217 223 221 220 218 219 222 224 232 234 235 236 528 529 490 486 487 535 534 488 489 533 532 531 530 233 231 230 229 228 227 189 225 226 190 191 192 193 184 185 183 181 179 180 169 171 170 172 173 174 175 176 177 178 182 186 188 187 540 538 539 537 536 484 485 483 481 482 475 476 480 479 477 478 548 549 560 561 562 563 564 565 566 567 474 473 472 471 495 494 524 525 493 492 491 526 523 521 522 527 512 513 511 510 509 237 240 239 238 246 247 245 244 243 242 241 248 249 250 251 252 254 253 255 256 257 300 299 258 259 260 261 262 263 264 265 266 298 297 296 295 294 293 270 269 268 267 271 272 273 274 275 292 291 290 289 288 276 277 278 279 282 281 280 287 286 285 284 283 334 335 336 337 338 339 333 332 331 330 340 341 342 343 344 345 346 364 363 362 347 348 349 350 351 352 415 416 414 413 353 354 355 356 357 358 359 361 360 401 402 403 400 404 405 406 407 399 398 397 394 395 396 371 370 369 368 365 367 366 329 328 327 326 325 324 323 322 372 373 374 375 376 377 378 379 380 393 391 392 390 389 388 387 386 385 408 409 384 383 410 411 412 418 417 419 420 421 422 423 427 426 424 425 382 381 431 428 429 430 432 433 434 435 436 437 438 445 444 443 442 446 447 448 449 450 441 440 439 454 455 456 457 458 459 461 452 453 499 500 501 498 502 503 504 505 307 308 309 310 311 451 312 313 314 315 316 317 321 320 319 318 305 306 304 303 301 302 508 507 506 516 515 514 517 520 518 519 497 496 470 469 468 467 466 465 464 463 462 460 571 572 573 0 1 2 3 4 5 6 7 8 9 10 11 14 15 16 17 18 570 569 568 19 20 13 12 23 22 21 24 25 26 27 28 29 30 32 31 36 37 38 33 34 35 40 41 39 42 43 44 556 557 558 559 550 551 101 102 100 99 552 553 554 98 96 95 97 94 93 92 91 555 45 46 47 48 49 50 84 51 52 54 53 55 56 58 57 83 82 85 86 87 90 89 88 78 62 79 80 81 59 60 61 63 64 76 77 75 74 73 119 118 120 121 122 123 71 72 65 66 67 68 70 69 124 125 126 117 106 105 104 103 547 546 545 544 543 541 542 107 108 109 110 115 116 127 128 129 130 131 132 133 134 135 136 137 138 139 140 141 142 144 143 151 150 149 152 148 147 146 145 158 157 153 154 155 156 159 160 161 113 112 114 111 168 162 163 167